n= 1
m= 50
1000
155	6	6
84	16	8
76	18	9
40	16	8
156	20	5
113	5	5
187	9	9
137	9	9
49	24	8
117	28	7
34	27	9
113	15	5
91	16	8
199	27	9
183	12	6
152	21	7
105	9	9
21	14	7
169	18	9
91	15	5
187	24	8
193	18	6
16	14	7
191	10	5
176	16	8
134	15	5
27	12	6
134	8	8
120	10	5
94	14	7
51	8	8
196	20	5
53	8	8
25	24	6
102	7	7
154	36	9
64	36	9
10	8	8
12	15	5
97	36	9
118	10	5
71	15	5
88	12	6
186	9	9
89	6	6
185	32	8
188	14	7
178	12	6
32	21	7
151	28	7
